************************************************************************
file with basedata            : md351_.bas
initial value random generator: 323618701
************************************************************************
projects                      :  1
jobs (incl. supersource/sink ):  22
horizon                       :  171
RESOURCES
  - renewable                 :  2   R
  - nonrenewable              :  2   N
  - doubly constrained        :  0   D
************************************************************************
PROJECT INFORMATION:
pronr.  #jobs rel.date duedate tardcost  MPM-Time
    1     20      0       26       16       26
************************************************************************
PRECEDENCE RELATIONS:
jobnr.    #modes  #successors   successors
   1        1          3           2   3   4
   2        3          3          13  14  16
   3        3          2           6   9
   4        3          2           5  14
   5        3          2           7  16
   6        3          2           8  16
   7        3          3           8  17  18
   8        3          1          10
   9        3          3          10  12  18
  10        3          1          11
  11        3          1          13
  12        3          2          13  14
  13        3          2          15  20
  14        3          2          15  17
  15        3          2          19  21
  16        3          3          18  19  20
  17        3          2          19  20
  18        3          1          21
  19        3          1          22
  20        3          1          22
  21        3          1          22
  22        1          0        
************************************************************************
REQUESTS/DURATIONS:
jobnr. mode duration  R 1  R 2  N 1  N 2
------------------------------------------------------------------------
  1      1     0       0    0    0    0
  2      1     5       3    5    6    0
         2     9       3    5    3    0
         3     9       3    4    0   10
  3      1     5       8    2    5    0
         2     7       8    2    4    0
         3     9       6    1    4    0
  4      1     1       6    9   10    0
         2     5       5    9    0    7
         3     9       4    8    0    3
  5      1     1       6    7    0    5
         2     1       6    7    8    0
         3     8       6    6    6    0
  6      1     6       6    5    0    7
         2     8       6    4    0    7
         3    10       4    3    0    6
  7      1     2       7    6    4    0
         2     4       6    4    4    0
         3     5       1    2    0   10
  8      1     3       4    7    0    8
         2     6       4    6    0    5
         3     9       3    6    0    2
  9      1     6       6    6    0    3
         2     9       6    6    1    0
         3     9       6    5    0    2
 10      1     1       4    9    0    9
         2     3       3    8    6    0
         3     3       3    7    0    2
 11      1     1       6    9    0    9
         2     8       4    9    9    0
         3     9       4    6    9    0
 12      1     2       8    6    0    8
         2     2       9    8    4    0
         3     8       7    3    0    8
 13      1     3       4    7    6    0
         2     4       3    7    0    8
         3     6       3    6    0    4
 14      1     4       8    7    0    7
         2     6       8    6    0    7
         3    10       6    5    4    0
 15      1     1       5    2    0    3
         2     6       5    1    2    0
         3     9       5    1    0    2
 16      1     2       5    9    0    7
         2     7       4    4    7    0
         3    10       3    3    4    0
 17      1     5       8    9    0    4
         2     6       6    8    0    2
         3    10       4    8    3    0
 18      1     3       3    5    0    1
         2     6       2    4    4    0
         3    10       2    2    0    1
 19      1     4       4    7    0    5
         2     6       3    7    0    4
         3     8       3    7    0    3
 20      1     1       9    5    0    8
         2     4       8    5    1    0
         3    10       8    2    0    5
 21      1     2       6    5    0    2
         2     3       3    4   10    0
         3    10       2    2    9    0
 22      1     0       0    0    0    0
************************************************************************
RESOURCEAVAILABILITIES:
  R 1  R 2  N 1  N 2
   16   20   90  121
************************************************************************
MAXIMAL LAGS:
from  to  type  delay
    1   12   ES      0
    1    2   ES      0
    2   12   ES      0
    1    3   ES      0
    3   12   ES      0
    1    4   ES      0
    4   12   ES      0
    1    5   ES      0
    5   12   ES      0
    1    6   ES      0
    6   12   ES      0
    1    7   ES      0
    7   12   ES      0
    1    8   ES      0
    8   12   ES      0
    1    9   ES      0
    9   12   ES      0
    1   10   ES      0
   10   12   ES      0
    1   11   ES      0
   11   12   ES      0
    1   12   ES      0
    2   13   SS    -12
    2   13   SE     -8
    2   13   ES      5
    2   13   EE      0
    2   14   SS      2
    2   14   SE     10
    2   14   ES      8
    2   14   EE     -7
    2   16   SS    -11
    2   16   SE     -8
    2   16   ES     12
    2   16   EE    -11
    3    6   SS    -11
    3    6   SE      7
    3    6   ES     -2
    3    6   EE     12
    3    9   SS     -5
    3    9   SE      0
    3    9   ES      1
    3    9   EE     11
    4    5   SS     -8
    4    5   SE    -10
    4    5   ES      6
    4    5   EE     -1
    4   14   SS     -6
    4   14   SE      1
    4   14   ES      5
    4   14   EE      6
    5    7   SS    -12
    5    7   SE    -12
    5    7   ES     -2
    5    7   EE      2
    5   16   SS      3
    5   16   SE      7
    5   16   ES     -2
    5   16   EE    -12
    6    8   SS    -11
    6    8   SE     -9
    6    8   ES      3
    6    8   EE     -5
    6   16   SS     -8
    6   16   SE     -2
    6   16   ES      6
    6   16   EE    -12
    7    8   SS    -12
    7    8   SE      2
    7    8   ES     -6
    7    8   EE      7
    7   17   SS      2
    7   17   SE    -10
    7   17   ES     -6
    7   17   EE     12
    7   18   SS     12
    7   18   SE    -11
    7   18   ES      8
    7   18   EE      2
    8   10   SS     -7
    8   10   SE     -7
    8   10   ES    -10
    8   10   EE     -9
    9   10   SS     -6
    9   10   SE      5
   10    9   SE      0
    9   10   ES      0
    9   10   EE      6
    9   18   SS    -11
    9   18   SE     11
    9   18   ES      4
    9   18   EE      3
   10   11   SS    -10
   10   11   SE      8
   10   11   ES      0
   10   11   EE      3
   11   13   SS     -8
   11   13   SE     -7
   11   13   ES     -9
   11   13   EE    -12
   12   13   SS     -4
   12   13   SE     -2
   12   13   ES     10
   12   13   EE     12
   12   14   SS     -4
   12   14   SE     11
   12   14   ES      1
   12   14   EE     -9
   13   15   SS      3
   13   15   SE     -9
   13   15   ES      6
   13   15   EE     -7
   13   20   SS      5
   13   20   SE    -10
   13   20   ES      3
   13   20   EE    -12
   14   15   SS      2
   14   15   SE     -4
   14   15   ES     -3
   14   15   EE     -5
   14   17   SS      1
   14   17   SE    -11
   14   17   ES     -8
   14   17   EE     -5
   15   19   SS     12
   15   19   SE     -3
   15   19   ES     -3
   15   19   EE     -8
   15   21   SS     -7
   15   21   SE     -1
   15   21   ES     -8
   15   21   EE    -10
   16   18   SS      8
   16   18   SE      0
   16   18   ES    -12
   16   18   EE     -8
   16   19   SS     -2
   16   19   SE     -7
   16   19   ES     -6
   16   19   EE      6
   16   20   SS     -4
   16   20   SE     12
   16   20   ES    -10
   16   20   EE     -8
   17   19   SS     11
   17   19   SE      9
   17   19   ES     11
   17   19   EE    -12
   17   20   SS      6
   17   20   SE     -4
   17   20   ES     -3
   17   20   EE     11
   18   21   SS      2
   18   21   SE      3
   18   21   ES     -7
   18   21   EE      0
   19   22   SS      7
   19   22   SE    -12
   19   22   ES     -6
   19   22   EE      9
   20   22   SS     -7
   20   22   SE      1
   20   22   ES      8
   20   22   EE      8
   21   22   SS     -1
   21   22   SE     -2
   21   22   ES     -9
   21   22   EE     -5
************************************************************************
